
  25    0


   0  10 2 3 4 5 7 9 10 22 23 24 
   5   5 21 15 14 12 8 
   2   3 20 8 6 
   2   3 19 18 11 
  10   3 15 14 13 
  10   2 16 12 
  10   2 17 11 
   8   1 11 
   8   1 13 
   6   1 11 
   5   1 25
   8   1 25
   8   1 25
   1   1 25
   4   1 25
   9   1 25
   2   1 25
   7   1 25
   6   1 25
  10   1 25
  10   1 25
   4   1 25
  10   1 25
   1   1 25
   0   0 
